Navios = {1 2 3 4 5 6 7 8 9 10};
Mares = {1 2 3 4 5 6 7 8 9 10 11 12 13 14 15};
Cargas = {"Bauxita" "Alumina" "Manganes" "Ferro"};
Bercos = {1 2 3};

vazao = [3 4 2];
chegada = [1 1 3 5 5 6 8 10 10 11];
estoque = [22 24 19 20];
consumo = [3 3 2 2];
carregamento =[
[4	0	0	0]
[7	0	0	0]
[2	0	0	0]
[0	12	0	0]
[3	0	0	0]
[0	19	0	0]
[0	0	3	0]
[0	0	0	17]
[0	0	12	0]
[7	0	0	0]];
